172924.38,50.44,62.55
160394.32,54.38,67.44
160063.32,54.49,67.58
170235.77,51.24,63.54
197660.96,44.13,54.72
173313.58,50.33,62.41
167815.81,51.98,64.46
174623.45,49.95,61.94
178609.33,48.84,60.56
156083.73,55.88,69.3
169826.69,51.36,63.69
187300.83,46.57,57.75
163912.27,53.22,65.99
172252.86,50.64,62.8
153433.46,56.85,70.5
171571.41,50.84,63.05
178229.24,48.94,60.69
170853.23,51.05,63.31
165538.92,52.69,65.34
169136.57,51.57,63.95
